120 150

51
56
50
50
58
48
41
56
49
49
48
53
52
55
51
43
56
47
60
47
58
55
50
47
50
53
52
54
43
45
59
44
58
44
48
54
55
60
48
47
45
44
44
43
43
54
45
51
50
41
59
58
58
59
50
44
49
57
58
54
50
52
48
59
48
43
59
48
43
53
50
47
47
50
53
43
42
56
44
50
58
40
52
46
56
48
57
49
44
54
48
52
55
51
48
51
50
45
58
40
55
52
48
43
41
41
43
48
59
46
57
58
44
48
47
43
49
58
58
59